% demand
num_movements = 46;
loading_factor = [1950, 1600, 1050, 1700, 1000, 1200, 1250, 1100, 900, 1200, 1650, 2000, 1750, 1000, 950, 950, 900, 850, 1600, 1150, 1550, 1400, 1850, 1900, 1700, 1200, 1350, 1850, 1700, 1400, 950, 1650, 950, 1800, 1400, 1200, 1250, 1400, 1700, 900, 1750, 1100, 800, 1500, 1950, 1100];
pickup_time = [0, 1, 1, 1, 1, 1, 1, 1, 2, 2, 3, 3, 3, 3, 3, 3, 4, 4, 4, 4, 4, 4, 6, 6, 6, 6, 6, 7, 7, 7, 7, 7, 7, 8, 8, 9, 9, 9, 10, 10, 10, 10, 10, 11, 11, 11];
delivery_time = [1, 3, 3, 3, 3, 3, 3, 3, 6, 3, 4, 6, 4, 4, 4, 4, 10, 6, 8, 5, 6, 5, 7, 7, 7, 7, 7, 8, 8, 8, 8, 8, 8, 10, 10, 10, 10, 10, 12, 11, 11, 12, 12, 12, 12, 12];

% transporter definition
total_capacity = 11000;
num_decks = 4;
capacity = [3000, 3000, 1000, 4000];

% ways out of decks
num_ways_out = 2;
paths_out = array3d(decks, ways_out, decks, [
% ways out of deck d1
2, 4, 0, 0, 3, 4, 0, 0, 

% ways out of deck d2
4, 0, 0, 0, 0, 0, 0, 0,	

% ways out of deck d3
4, 0, 0, 0, 0, 0, 0, 0,	

% ways out of deck d4
0, 0, 0, 0,	0, 0, 0, 0,	

]);

